objective value:                                11137
t_x_3                                               1 	(obj:11)
t_x_6                                               1 	(obj:47)
t_x_11                                              1 	(obj:23)
t_x_13                                              1 	(obj:15)
t_x_14                                              1 	(obj:64)
t_x_19                                              1 	(obj:30)
t_x_21                                              1 	(obj:14)
t_x_22                                              1 	(obj:80)
t_x_23                                              1 	(obj:58)
t_x_24                                              1 	(obj:32)
t_x_30                                              1 	(obj:23)
t_x_31                                              1 	(obj:4)
t_x_32                                              1 	(obj:20)
t_x_34                                              1 	(obj:3)
t_x_36                                              1 	(obj:12)
t_x_37                                              1 	(obj:12)
t_x_39                                              1 	(obj:13)
t_x_41                                              1 	(obj:11)
t_x_42                                              1 	(obj:17)
t_x_43                                              1 	(obj:66)
t_x_44                                              1 	(obj:30)
t_x_48                                              1 	(obj:43)
t_x_51                                              1 	(obj:11)
t_x_53                                              1 	(obj:6)
t_x_56                                              1 	(obj:27)
t_x_60                                              1 	(obj:22)
t_x_61                                              1 	(obj:6)
t_x_63                                              1 	(obj:21)
t_x_65                                              1 	(obj:6)
t_x_68                                              1 	(obj:9)
t_x_70                                              1 	(obj:10)
t_x_75                                              1 	(obj:42)
t_x_76                                              1 	(obj:5)
t_x_78                                              1 	(obj:11)
t_x_81                                              1 	(obj:78)
t_x_82                                              1 	(obj:18)
t_x_85                                              1 	(obj:4)
t_x_87                                              1 	(obj:14)
t_x_89                                              1 	(obj:19)
t_x_90                                              1 	(obj:18)
t_x_91                                              1 	(obj:27)
t_x_92                                              1 	(obj:0)
t_x_95                                              1 	(obj:26)
t_x_96                                              1 	(obj:50)
t_x_98                                              1 	(obj:5)
t_x_100                                             1 	(obj:4)
t_x_102                                             1 	(obj:30)
t_x_110                                             1 	(obj:31)
t_x_111                                             1 	(obj:1)
t_x_116                                             1 	(obj:8)
t_x_122                                             1 	(obj:18)
t_x_128                                             1 	(obj:21)
t_x_131                                             1 	(obj:27)
t_x_132                                             1 	(obj:18)
t_x_133                                             1 	(obj:59)
t_x_139                                             1 	(obj:22)
t_x_142                                             1 	(obj:5)
t_x_147                                             1 	(obj:4)
t_x_149                                             1 	(obj:16)
t_x_151                                             1 	(obj:2)
t_x_153                                             1 	(obj:7)
t_x_157                                             1 	(obj:4)
t_x_158                                             1 	(obj:1)
t_x_161                                             1 	(obj:4)
t_x_163                                             1 	(obj:19)
t_x_164                                             1 	(obj:10)
t_x_168                                             1 	(obj:3)
t_x_169                                             1 	(obj:8)
t_x_175                                             1 	(obj:2)
t_x_176                                             1 	(obj:5)
t_x_178                                             1 	(obj:15)
t_x_180                                             1 	(obj:20)
t_x_181                                             1 	(obj:5)
t_x_182                                             1 	(obj:13)
t_x_184                                             1 	(obj:14)
t_x_187                                             1 	(obj:27)
t_x_192                                             1 	(obj:18)
t_x_195                                             1 	(obj:3)
t_x_196                                             1 	(obj:9)
t_x_199                                             1 	(obj:16)
t_x_210                                             1 	(obj:5)
t_x_211                                             1 	(obj:23)
t_x_216                                             1 	(obj:29)
t_x_217                                             1 	(obj:30)
t_x_222                                             1 	(obj:5)
t_x_223                                             1 	(obj:31)
t_x_225                                             1 	(obj:14)
t_x_226                                             1 	(obj:22)
t_x_227                                             1 	(obj:26)
t_x_228                                             1 	(obj:8)
t_x_230                                             1 	(obj:24)
t_x_237                                             1 	(obj:27)
t_x_238                                             1 	(obj:14)
t_x_241                                             1 	(obj:5)
t_x_254                                             1 	(obj:25)
t_x_256                                             1 	(obj:2)
t_x_259                                             1 	(obj:25)
t_x_268                                             1 	(obj:6)
t_x_270                                             1 	(obj:47)
t_x_272                                             1 	(obj:10)
t_x_280                                             1 	(obj:18)
t_x_281                                             1 	(obj:0)
t_x_287                                             1 	(obj:8)
t_x_290                                             1 	(obj:13)
t_x_293                                             1 	(obj:35)
t_x_303                                             1 	(obj:2)
t_x_314                                             1 	(obj:32)
t_x_322                                             1 	(obj:0)
t_x_323                                             1 	(obj:5)
t_x_325                                             1 	(obj:0)
t_x_330                                             1 	(obj:10)
t_x_331                                             1 	(obj:13)
t_x_335                                             1 	(obj:3)
t_x_338                                             1 	(obj:25)
t_x_341                                             1 	(obj:5)
t_x_343                                             1 	(obj:42)
t_x_347                                             1 	(obj:16)
t_x_351                                             1 	(obj:29)
t_x_352                                             1 	(obj:26)
t_x_360                                             1 	(obj:15)
t_x_368                                             1 	(obj:29)
t_x_371                                             1 	(obj:1)
t_x_372                                             1 	(obj:49)
t_x_375                                             1 	(obj:19)
t_x_376                                             1 	(obj:43)
t_x_387                                             1 	(obj:19)
t_x_388                                             1 	(obj:8)
t_x_389                                             1 	(obj:17)
t_x_392                                             1 	(obj:11)
t_x_398                                             1 	(obj:5)
t_x_409                                             1 	(obj:11)
t_x_414                                             1 	(obj:6)
t_x_423                                             1 	(obj:5)
t_x_429                                             1 	(obj:40)
t_x_432                                             1 	(obj:24)
t_x_433                                             1 	(obj:18)
t_x_434                                             1 	(obj:27)
t_x_435                                             1 	(obj:15)
t_x_437                                             1 	(obj:8)
t_x_439                                             1 	(obj:46)
t_x_444                                             1 	(obj:21)
t_x_449                                             1 	(obj:22)
t_x_453                                             1 	(obj:10)
t_x_454                                             1 	(obj:4)
t_x_458                                             1 	(obj:12)
t_x_461                                             1 	(obj:12)
t_x_473                                             1 	(obj:17)
t_x_475                                             1 	(obj:16)
t_x_481                                             1 	(obj:31)
t_x_486                                             1 	(obj:4)
t_x_487                                             1 	(obj:35)
t_x_489                                             1 	(obj:21)
t_x_492                                             1 	(obj:31)
t_x_493                                             1 	(obj:21)
t_x_494                                             1 	(obj:12)
t_x_509                                             1 	(obj:47)
t_x_512                                             1 	(obj:21)
t_x_514                                             1 	(obj:1)
t_x_522                                             1 	(obj:18)
t_x_526                                             1 	(obj:8)
t_x_527                                             1 	(obj:6)
t_x_528                                             1 	(obj:5)
t_x_530                                             1 	(obj:1)
t_x_539                                             1 	(obj:24)
t_x_540                                             1 	(obj:53)
t_x_541                                             1 	(obj:0)
t_x_543                                             1 	(obj:4)
t_x_546                                             1 	(obj:9)
t_x_547                                             1 	(obj:5)
t_x_549                                             1 	(obj:37)
t_x_550                                             1 	(obj:31)
t_x_559                                             1 	(obj:1)
t_x_560                                             1 	(obj:13)
t_x_562                                             1 	(obj:29)
t_x_566                                             1 	(obj:12)
t_x_567                                             1 	(obj:28)
t_x_574                                             1 	(obj:34)
t_x_580                                             1 	(obj:18)
t_x_584                                             1 	(obj:18)
t_x_585                                             1 	(obj:14)
t_x_588                                             1 	(obj:41)
t_x_592                                             1 	(obj:10)
t_x_596                                             1 	(obj:47)
t_x_599                                             1 	(obj:4)
t_x_600                                             1 	(obj:32)
t_x_604                                             1 	(obj:5)
t_x_609                                             1 	(obj:7)
t_x_617                                             1 	(obj:27)
t_x_618                                             1 	(obj:11)
t_x_621                                             1 	(obj:19)
t_x_623                                             1 	(obj:1)
t_x_629                                             1 	(obj:7)
t_x_630                                             1 	(obj:61)
t_x_631                                             1 	(obj:2)
t_x_634                                             1 	(obj:6)
t_x_639                                             1 	(obj:5)
t_x_640                                             1 	(obj:0)
t_x_648                                             1 	(obj:38)
t_x_654                                             1 	(obj:28)
t_x_655                                             1 	(obj:24)
t_x_656                                             1 	(obj:61)
t_x_658                                             1 	(obj:6)
t_x_659                                             1 	(obj:3)
t_x_666                                             1 	(obj:3)
t_x_670                                             1 	(obj:54)
t_x_671                                             1 	(obj:23)
t_x_674                                             1 	(obj:11)
t_x_675                                             1 	(obj:24)
t_x_677                                             1 	(obj:15)
t_x_679                                             1 	(obj:4)
t_x_687                                             1 	(obj:84)
t_x_689                                             1 	(obj:8)
t_x_692                                             1 	(obj:7)
t_x_693                                             1 	(obj:17)
t_x_702                                             1 	(obj:31)
t_x_703                                             1 	(obj:19)
t_x_705                                             1 	(obj:11)
t_x_709                                             1 	(obj:24)
t_x_712                                             1 	(obj:76)
t_x_713                                             1 	(obj:47)
t_x_717                                             1 	(obj:23)
t_x_722                                             1 	(obj:38)
t_x_728                                             1 	(obj:14)
t_x_731                                             1 	(obj:22)
t_x_733                                             1 	(obj:13)
t_x_735                                             1 	(obj:21)
t_x_739                                             1 	(obj:30)
t_x_740                                             1 	(obj:51)
t_x_750                                             1 	(obj:5)
t_x_753                                             1 	(obj:29)
t_x_760                                             1 	(obj:5)
t_x_766                                             1 	(obj:52)
t_x_769                                             1 	(obj:3)
t_x_789                                             1 	(obj:6)
t_x_795                                             1 	(obj:0)
t_x_796                                             1 	(obj:13)
t_x_797                                             1 	(obj:9)
t_x_798                                             1 	(obj:47)
t_x_799                                             1 	(obj:35)
t_x_808                                             1 	(obj:35)
t_x_809                                             1 	(obj:9)
t_x_814                                             1 	(obj:24)
t_x_816                                             1 	(obj:23)
t_x_817                                             1 	(obj:11)
t_x_818                                             1 	(obj:13)
t_x_819                                             1 	(obj:12)
t_x_831                                             1 	(obj:23)
t_x_832                                             1 	(obj:42)
t_x_836                                             1 	(obj:19)
t_x_837                                             1 	(obj:22)
t_x_840                                             1 	(obj:11)
t_x_846                                             1 	(obj:1)
t_x_857                                             1 	(obj:22)
t_x_861                                             1 	(obj:10)
t_x_862                                             1 	(obj:8)
t_x_865                                             1 	(obj:5)
t_x_871                                             1 	(obj:63)
t_x_875                                             1 	(obj:17)
t_x_876                                             1 	(obj:3)
t_x_877                                             1 	(obj:9)
t_x_878                                             1 	(obj:3)
t_x_879                                             1 	(obj:14)
t_x_883                                             1 	(obj:31)
t_x_887                                             1 	(obj:35)
t_x_890                                             1 	(obj:29)
t_x_892                                             1 	(obj:11)
t_x_895                                             1 	(obj:43)
t_x_897                                             1 	(obj:25)
t_x_900                                             1 	(obj:6)
t_x_903                                             1 	(obj:20)
t_x_906                                             1 	(obj:1)
t_x_913                                             1 	(obj:23)
t_x_916                                             1 	(obj:7)
t_x_917                                             1 	(obj:21)
t_x_918                                             1 	(obj:30)
t_x_920                                             1 	(obj:0)
t_x_925                                             1 	(obj:24)
t_x_928                                             1 	(obj:5)
t_x_929                                             1 	(obj:5)
t_x_931                                             1 	(obj:6)
t_x_937                                             1 	(obj:7)
t_x_944                                             1 	(obj:30)
t_x_945                                             1 	(obj:20)
t_x_948                                             1 	(obj:19)
t_x_951                                             1 	(obj:28)
t_x_954                                             1 	(obj:21)
t_x_956                                             1 	(obj:47)
t_x_958                                             1 	(obj:13)
t_x_959                                             1 	(obj:36)
t_x_960                                             1 	(obj:21)
t_x_974                                             1 	(obj:4)
t_x_976                                             1 	(obj:9)
t_x_981                                             1 	(obj:2)
t_x_983                                             1 	(obj:14)
t_x_989                                             1 	(obj:2)
t_x_990                                             1 	(obj:27)
t_x_992                                             1 	(obj:35)
t_x_993                                             1 	(obj:0)
t_x_1003                                            1 	(obj:6)
t_x_1004                                            1 	(obj:10)
t_x_1008                                            1 	(obj:3)
t_x_1012                                            1 	(obj:11)
t_x_1017                                            1 	(obj:8)
t_x_1018                                            1 	(obj:13)
t_x_1025                                            1 	(obj:8)
t_x_1027                                            1 	(obj:24)
t_x_1034                                            1 	(obj:20)
t_x_1035                                            1 	(obj:24)
t_x_1038                                            1 	(obj:24)
t_x_1039                                            1 	(obj:14)
t_x_1041                                            1 	(obj:10)
t_x_1045                                            1 	(obj:38)
t_x_1046                                            1 	(obj:9)
t_x_1048                                            1 	(obj:20)
t_x_1051                                            1 	(obj:4)
t_x_1054                                            1 	(obj:49)
t_x_1055                                            1 	(obj:20)
t_x_1057                                            1 	(obj:22)
t_x_1058                                            1 	(obj:28)
t_x_1060                                            1 	(obj:5)
t_x_1064                                            1 	(obj:50)
t_x_1066                                            1 	(obj:17)
t_x_1075                                            1 	(obj:2)
t_x_1077                                            1 	(obj:26)
t_x_1080                                            1 	(obj:0)
t_x_1081                                            1 	(obj:31)
t_x_1082                                            1 	(obj:10)
t_x_1084                                            1 	(obj:30)
t_x_1087                                            1 	(obj:4)
t_x_1089                                            1 	(obj:10)
t_x_1092                                            1 	(obj:4)
t_x_1094                                            1 	(obj:39)
t_x_1095                                            1 	(obj:1)
t_x_1106                                            1 	(obj:5)
t_x_1108                                            1 	(obj:11)
t_x_1111                                            1 	(obj:1)
t_x_1112                                            1 	(obj:35)
t_x_1115                                            1 	(obj:4)
t_x_1122                                            1 	(obj:8)
t_x_1124                                            1 	(obj:13)
t_x_1129                                            1 	(obj:0)
t_x_1137                                            1 	(obj:23)
t_x_1146                                            1 	(obj:20)
t_x_1148                                            1 	(obj:19)
t_x_1149                                            1 	(obj:18)
t_x_1152                                            1 	(obj:0)
t_x_1154                                            1 	(obj:3)
t_x_1157                                            1 	(obj:11)
t_x_1158                                            1 	(obj:25)
t_x_1162                                            1 	(obj:48)
t_x_1164                                            1 	(obj:10)
t_x_1165                                            1 	(obj:21)
t_x_1167                                            1 	(obj:2)
t_x_1174                                            1 	(obj:1)
t_x_1177                                            1 	(obj:52)
t_x_1182                                            1 	(obj:59)
t_x_1186                                            1 	(obj:28)
t_x_1192                                            1 	(obj:17)
t_x_1196                                            1 	(obj:1)
t_x_1197                                            1 	(obj:10)
t_x_1198                                            1 	(obj:24)
t_x_1203                                            1 	(obj:5)
t_x_1211                                            1 	(obj:3)
t_x_1213                                            1 	(obj:9)
t_x_1215                                            1 	(obj:0)
t_x_1217                                            1 	(obj:35)
t_x_1219                                            1 	(obj:6)
t_x_1220                                            1 	(obj:4)
t_x_1224                                            1 	(obj:7)
t_x_1229                                            1 	(obj:30)
t_x_1236                                            1 	(obj:35)
t_x_1241                                            1 	(obj:15)
t_x_1244                                            1 	(obj:24)
t_x_1245                                            1 	(obj:25)
t_x_1249                                            1 	(obj:28)
t_x_1250                                            1 	(obj:16)
t_x_1252                                            1 	(obj:8)
t_x_1257                                            1 	(obj:11)
t_x_1258                                            1 	(obj:7)
t_x_1268                                            1 	(obj:33)
t_x_1275                                            1 	(obj:29)
t_x_1284                                            1 	(obj:21)
t_x_1285                                            1 	(obj:9)
t_x_1286                                            1 	(obj:9)
t_x_1289                                            1 	(obj:16)
t_x_1294                                            1 	(obj:7)
t_x_1300                                            1 	(obj:24)
t_x_1310                                            1 	(obj:45)
t_x_1321                                            1 	(obj:32)
t_x_1329                                            1 	(obj:3)
t_x_1337                                            1 	(obj:13)
t_x_1338                                            1 	(obj:19)
t_x_1350                                            1 	(obj:17)
t_x_1351                                            1 	(obj:15)
t_x_1352                                            1 	(obj:16)
t_x_1354                                            1 	(obj:46)
t_x_1359                                            1 	(obj:7)
t_x_1360                                            1 	(obj:31)
t_x_1361                                            1 	(obj:12)
t_x_1367                                            1 	(obj:29)
t_x_1368                                            1 	(obj:37)
t_x_1369                                            1 	(obj:8)
t_x_1370                                            1 	(obj:5)
t_x_1372                                            1 	(obj:19)
t_x_1373                                            1 	(obj:32)
t_x_1374                                            1 	(obj:35)
t_x_1383                                            1 	(obj:17)
t_x_1385                                            1 	(obj:4)
t_x_1386                                            1 	(obj:9)
t_x_1392                                            1 	(obj:3)
t_x_1393                                            1 	(obj:17)
t_x_1394                                            1 	(obj:37)
t_x_1396                                            1 	(obj:26)
t_x_1398                                            1 	(obj:25)
t_x_1399                                            1 	(obj:25)
t_x_1401                                            1 	(obj:86)
t_x_1405                                            1 	(obj:45)
t_x_1407                                            1 	(obj:5)
t_x_1409                                            1 	(obj:14)
t_x_1411                                            1 	(obj:36)
t_x_1417                                            1 	(obj:28)
t_x_1421                                            1 	(obj:18)
t_x_1422                                            1 	(obj:6)
t_x_1432                                            1 	(obj:17)
t_x_1433                                            1 	(obj:15)
t_x_1435                                            1 	(obj:12)
t_x_1438                                            1 	(obj:5)
t_x_1439                                            1 	(obj:0)
t_x_1440                                            1 	(obj:3)
t_x_1441                                            1 	(obj:13)
t_x_1446                                            1 	(obj:5)
t_x_1447                                            1 	(obj:15)
t_x_1451                                            1 	(obj:15)
t_x_1453                                            1 	(obj:25)
t_x_1458                                            1 	(obj:18)
t_x_1462                                            1 	(obj:20)
t_x_1463                                            1 	(obj:9)
t_x_1466                                            1 	(obj:26)
t_x_1467                                            1 	(obj:6)
t_x_1469                                            1 	(obj:23)
t_x_1470                                            1 	(obj:9)
t_x_1476                                            1 	(obj:23)
t_x_1478                                            1 	(obj:5)
t_x_1480                                            1 	(obj:16)
t_x_1482                                            1 	(obj:7)
t_x_1484                                            1 	(obj:8)
t_x_1486                                            1 	(obj:22)
t_x_1488                                            1 	(obj:5)
t_x_1489                                            1 	(obj:31)
t_x_1490                                            1 	(obj:20)
t_x_1495                                            1 	(obj:33)
t_x_1502                                            1 	(obj:14)
t_x_1503                                            1 	(obj:30)
t_x_1505                                            1 	(obj:15)
t_x_1507                                            1 	(obj:23)
t_x_1509                                            1 	(obj:49)
t_x_1511                                            1 	(obj:4)
t_x_1517                                            1 	(obj:8)
t_x_1518                                            1 	(obj:4)
t_x_1519                                            1 	(obj:2)
t_x_1521                                            1 	(obj:23)
t_x_1524                                            1 	(obj:15)
t_x_1526                                            1 	(obj:22)
t_x_1531                                            1 	(obj:21)
t_x_1532                                            1 	(obj:7)
t_x_1534                                            1 	(obj:12)
t_x_1535                                            1 	(obj:29)
t_x_1537                                            1 	(obj:29)
t_x_1540                                            1 	(obj:64)
t_x_1542                                            1 	(obj:15)
t_x_1544                                            1 	(obj:11)
t_x_1545                                            1 	(obj:18)
t_x_1546                                            1 	(obj:2)
t_x_1554                                            1 	(obj:6)
t_x_1559                                            1 	(obj:12)
t_x_1561                                            1 	(obj:9)
t_x_1569                                            1 	(obj:5)
t_x_1570                                            1 	(obj:10)
t_x_1578                                            1 	(obj:3)
t_x_1584                                            1 	(obj:15)
t_x_1585                                            1 	(obj:45)
t_x_1592                                            1 	(obj:20)
t_x_1593                                            1 	(obj:5)
t_x_1595                                            1 	(obj:16)
t_x_1596                                            1 	(obj:2)
t_x_1597                                            1 	(obj:16)
t_x_1599                                            1 	(obj:6)
t_x_1602                                            1 	(obj:5)
t_x_1605                                            1 	(obj:2)
t_x_1607                                            1 	(obj:30)
t_x_1630                                            1 	(obj:4)
t_x_1632                                            1 	(obj:21)
t_x_1635                                            1 	(obj:8)
t_x_1636                                            1 	(obj:1)
t_x_1638                                            1 	(obj:6)
t_x_1642                                            1 	(obj:32)
t_x_1644                                            1 	(obj:19)
t_x_1648                                            1 	(obj:1)
t_x_1650                                            1 	(obj:10)
t_x_1651                                            1 	(obj:0)
t_x_1660                                            1 	(obj:28)
t_x_1663                                            1 	(obj:63)
t_x_1665                                            1 	(obj:40)
t_x_1666                                            1 	(obj:49)
t_x_1668                                            1 	(obj:32)
t_x_1671                                            1 	(obj:15)
t_x_1673                                            1 	(obj:23)
t_x_1674                                            1 	(obj:26)
t_x_1689                                            1 	(obj:1)
t_x_1692                                            1 	(obj:5)
t_x_1693                                            1 	(obj:8)
t_x_1697                                            1 	(obj:3)
t_x_1700                                            1 	(obj:2)
t_x_1701                                            1 	(obj:9)
t_x_1710                                            1 	(obj:15)
t_x_1711                                            1 	(obj:8)
t_x_1713                                            1 	(obj:12)
t_x_1715                                            1 	(obj:31)
t_x_1717                                            1 	(obj:24)
t_x_1725                                            1 	(obj:26)
t_x_1726                                            1 	(obj:24)
t_x_1730                                            1 	(obj:19)
t_x_1732                                            1 	(obj:0)
t_x_1737                                            1 	(obj:18)
t_x_1739                                            1 	(obj:19)
t_x_1740                                            1 	(obj:12)
t_x_1741                                            1 	(obj:16)
t_x_1749                                            1 	(obj:62)
t_x_1757                                            1 	(obj:14)
t_x_1759                                            1 	(obj:52)
t_x_1760                                            1 	(obj:13)
t_x_1761                                            1 	(obj:16)
t_x_1764                                            1 	(obj:1)
t_x_1768                                            1 	(obj:3)
t_x_1769                                            1 	(obj:19)
t_x_1770                                            1 	(obj:15)
t_x_1777                                            1 	(obj:22)
t_x_1778                                            1 	(obj:25)
t_x_1779                                            1 	(obj:20)
t_x_1782                                            1 	(obj:24)
t_x_1786                                            1 	(obj:19)
t_x_1787                                            1 	(obj:7)
t_x_1789                                            1 	(obj:12)
t_x_1794                                            1 	(obj:8)
t_x_1795                                            1 	(obj:6)
t_x_1801                                            1 	(obj:8)
t_x_1809                                            1 	(obj:26)
t_x_1812                                            1 	(obj:0)
t_x_1814                                            1 	(obj:24)
t_x_1817                                            1 	(obj:28)
t_x_1819                                            1 	(obj:1)
t_x_1824                                            1 	(obj:8)
t_x_1827                                            1 	(obj:4)
t_x_1828                                            1 	(obj:26)
t_x_1835                                            1 	(obj:23)
t_x_1838                                            1 	(obj:24)
t_x_1841                                            1 	(obj:43)
t_x_1842                                            1 	(obj:33)
t_x_1843                                            1 	(obj:7)
t_x_1844                                            1 	(obj:7)
t_x_1855                                            1 	(obj:25)
t_x_1858                                            1 	(obj:15)
t_x_1865                                            1 	(obj:1)
t_x_1867                                            1 	(obj:7)
t_x_1870                                            1 	(obj:13)
t_x_1876                                            1 	(obj:65)
t_x_1879                                            1 	(obj:0)
t_x_1881                                            1 	(obj:36)
t_x_1883                                            1 	(obj:3)
t_x_1884                                            1 	(obj:4)
t_x_1887                                            1 	(obj:9)
t_x_1888                                            1 	(obj:23)
t_x_1890                                            1 	(obj:2)
t_x_1894                                            1 	(obj:18)
t_x_1899                                            1 	(obj:11)
t_x_1901                                            1 	(obj:8)
t_x_1904                                            1 	(obj:30)
t_x_1906                                            1 	(obj:13)
t_x_1911                                            1 	(obj:32)
t_x_1914                                            1 	(obj:18)
t_x_1915                                            1 	(obj:11)
t_x_1918                                            1 	(obj:45)
t_x_1919                                            1 	(obj:13)
t_x_1930                                            1 	(obj:26)
t_x_1933                                            1 	(obj:2)
t_x_1935                                            1 	(obj:13)
t_x_1939                                            1 	(obj:38)
t_x_1941                                            1 	(obj:39)
t_x_1943                                            1 	(obj:18)
t_x_1945                                            1 	(obj:1)
t_x_1948                                            1 	(obj:42)
t_x_1949                                            1 	(obj:22)
t_x_1950                                            1 	(obj:3)
t_x_1951                                            1 	(obj:7)
t_x_1956                                            1 	(obj:5)
t_x_1963                                            1 	(obj:51)
t_x_1964                                            1 	(obj:0)
t_x_1966                                            1 	(obj:5)
t_x_1969                                            1 	(obj:4)
t_x_1972                                            1 	(obj:6)
t_x_1973                                            1 	(obj:3)
t_x_1976                                            1 	(obj:6)
t_x_1984                                            1 	(obj:29)
t_x_1986                                            1 	(obj:42)
t_x_1987                                            1 	(obj:33)
t_x_1988                                            1 	(obj:5)
t_x_1989                                            1 	(obj:41)
t_x_1992                                            1 	(obj:5)
t_x_1995                                            1 	(obj:24)
t_x_1997                                            1 	(obj:15)
